20180108 199398.96 197552.95
20171225 199398.96 196624.32
20170908 199589.08 196624.32
20170203 199589.08 175638.40
20170118 199589.08 174978.12
20170110 199663.60 174978.12
20161229 199663.60 174921.72
20161214 199677.60 174921.72
20160908 198419.86 174921.72
20160623 177433.95 174921.72
20160328 177433.95 162111.26
20151225 177137.95 162077.51
